14709
1 0 0 1 1 1 1 1 1 0 0 1 0 1 1 1 0 1 0 0 1 0 1 1 1 1 0 1 0 0 
20 11 13 14 20 5 17 24 14 17 22 8 8 20 3 14 14 17 5 11 14 0 5 3 5 8 17 24 5 24 5 25 6 25 20 20 24 15 0 14 0 14 15 8 24 14 0 13 27 8 5 14 14 5 13 20 17 11 0 14 0 5 20 11 11 11 22 0 5 22 20 6 11 17 24 8 22 20 14 24 20 7 13 17 17 17 17 4 20 5 17 24 17 11 17 5 14 3 25 13 8 17 17 25 0 25 7 11 8 8 0 14 0 11 11 25 24 24 24 24 5 8 25 13 8 0 5 24 0 25 0 11 24 5 8 8 7 25 20 0 0 8 20 7 8 25 25 11 7 11 

Total Run Time: 260377 ms.
